
Gurobi 13.0.0 (linux64) logging started Thu Jan 15 00:19:35 2026

Set parameter LogFile to value "../experiments/network-n_30_s_1_rp_0-app_set-id_31_15_apps/submip_40_epr1_model_gurobi.log"
Set parameter TimeLimit to value 8.8342645552400791e+02
Gurobi Optimizer version 13.0.0 build v13.0.0rc1 (linux64 - "Ubuntu 24.04.3 LTS")

CPU model: Intel(R) Core(TM) Ultra 7 165H, instruction set [SSE2|AVX|AVX2]
Thread count: 22 physical cores, 22 logical processors, using up to 22 threads

Non-default parameters:
TimeLimit  8.8342645552400791e+02
LogToConsole  0

Academic license 2539022 - for non-commercial use only - registered to al___@studenti.unimi.it
Optimize a model with 7734 rows, 2940 columns and 19511 nonzeros (Min)
Model fingerprint: 0x9db02c84
Model has 2940 linear objective coefficients
Model has 100 quadratic constraints
Variable types: 0 continuous, 2940 integer (2940 binary)
Coefficient statistics:
  Matrix range     [1e+00, 9e+02]
  QMatrix range    [5e+01, 2e+02]
  Objective range  [1e+01, 2e+02]
  Bounds range     [1e+00, 1e+00]
  RHS range        [1e+00, 1e+09]
  QRHS range       [1e+02, 6e+02]
Presolve removed 7577 rows and 2358 columns
Presolve time: 0.01s
Presolved: 2460 rows, 2792 columns, 15141 nonzeros
Variable types: 0 continuous, 2792 integer (2792 binary)

Root relaxation: objective 4.005487e+03, 852 iterations, 0.02 seconds (0.04 work units)

    Nodes    |    Current Node    |     Objective Bounds      |     Work
 Expl Unexpl |  Obj  Depth IntInf | Incumbent    BestBd   Gap | It/Node Time

     0     0 4005.48701    0  100          - 4005.48701      -     -    0s
     0     0 4164.43936    0  119          - 4164.43936      -     -    0s
     0     0 4194.01394    0  119          - 4194.01394      -     -    0s
     0     0 4206.01243    0  116          - 4206.01243      -     -    0s
     0     0 4206.50438    0  118          - 4206.50438      -     -    0s
     0     0 infeasible    0               - infeasible      -     -    0s

Cutting planes:
  Gomory: 2
  Lift-and-project: 21
  Cover: 60
  Clique: 13
  MIR: 43
  Knapsack: 15
  StrongCG: 47
  GUB cover: 9
  Zero half: 7
  RLT: 58
  Relax-and-lift: 38
  BQP: 40

Explored 1 nodes (2057 simplex iterations) in 0.37 seconds (0.37 work units)
Thread count was 22 (of 22 available processors)

Solution count 0

Model is infeasible
Best objective -, best bound -, gap -

User-callback calls 570, time in user-callback 0.00 sec
